\ Model STL formula: (G[0.0, 2.0]^<lambda> (x >= 3.0))
\ LP format - for model browsing. Use MPS format to capture full model detail.
Maximize
  rho_G_2dx6528c89fb61cbacf_0
Subject To
 R0: - 1000 G_2dx6528c89fb61cbacf_0 - 5 rho_G_2dx6528c89fb61cbacf_0 + x_0
   <= 3
 R1: - 1000 G_2dx6528c89fb61cbacf_0 - 5 rho_G_2dx6528c89fb61cbacf_0 + x_0
   >= -997
 R2: - 1000 G_2dx6528c89fb61cbacf_0 - 25 rho_G_2dx6528c89fb61cbacf_0 + x_1
   <= 3
 R3: - 1000 G_2dx6528c89fb61cbacf_0 - 25 rho_G_2dx6528c89fb61cbacf_0 + x_1
   >= -997
 R4: - 1000 G_2dx6528c89fb61cbacf_0 - 125 rho_G_2dx6528c89fb61cbacf_0 + x_2
   <= 3
 R5: - 1000 G_2dx6528c89fb61cbacf_0 - 125 rho_G_2dx6528c89fb61cbacf_0 + x_2
   >= -997
 formula_satisfaction: G_2dx6528c89fb61cbacf_0 = 1
Bounds
 rho_G_2dx6528c89fb61cbacf_0 free
 x_0 <= 10
 x_1 <= 10
 x_2 <= 10
Binaries
 G_2dx6528c89fb61cbacf_0
End
